\ Model Network optimization
\ LP format - for model browsing. Use MPS format to capture full model detail.
Minimize
  p_mu[0] + p_mu[1] + p_mu[2] + p_mu[3] + p_mu[4] + p_mu[5] + n_mu[0]
   + n_mu[1] + n_mu[2] + n_mu[3] + n_mu[4] + n_mu[5]
Subject To
 R0: - pf[0,0] + p_mu[0] >= 0
 R1: - nf[0,0] + n_mu[0] >= 0
 R2: - pf[0,1] + p_mu[0] >= 0
 R3: - nf[0,1] + n_mu[0] >= 0
 R4: - pf[1,0] + p_mu[1] >= 0
 R5: - nf[1,0] + n_mu[1] >= 0
 R6: - pf[1,1] + p_mu[1] >= 0
 R7: - nf[1,1] + n_mu[1] >= 0
 R8: - 1.931851652578137 pf[2,0] + p_mu[2] >= 0
 R9: - 1.931851652578137 nf[2,0] + n_mu[2] >= 0
 R10: - 1.931851652578137 pf[2,1] + p_mu[2] >= 0
 R11: - 1.931851652578137 nf[2,1] + n_mu[2] >= 0
 R12: - pf[3,0] + p_mu[3] >= 0
 R13: - nf[3,0] + n_mu[3] >= 0
 R14: - pf[3,1] + p_mu[3] >= 0
 R15: - nf[3,1] + n_mu[3] >= 0
 R16: - 1.931851652578137 pf[4,0] + p_mu[4] >= 0
 R17: - 1.931851652578137 nf[4,0] + n_mu[4] >= 0
 R18: - 1.931851652578137 pf[4,1] + p_mu[4] >= 0
 R19: - 1.931851652578137 nf[4,1] + n_mu[4] >= 0
 R20: - pf[5,0] + p_mu[5] >= 0
 R21: - nf[5,0] + n_mu[5] >= 0
 R22: - pf[5,1] + p_mu[5] >= 0
 R23: - nf[5,1] + n_mu[5] >= 0
 R24: pf[0,0] + pf[1,0] + pf[2,0] - nf[0,0] - nf[1,0] - nf[2,0] = 1
 R25: pf[0,1] + pf[1,1] + pf[2,1] - nf[0,1] - nf[1,1] - nf[2,1] = 0
 R26: - pf[0,0] + pf[3,0] + pf[4,0] + nf[0,0] - nf[3,0] - nf[4,0] = 0
 R27: - pf[0,1] + pf[3,1] + pf[4,1] + nf[0,1] - nf[3,1] - nf[4,1] = 1
 R28: - pf[1,0] - pf[3,0] + pf[5,0] + nf[1,0] + nf[3,0] - nf[5,0] = 0
 R29: - pf[1,1] - pf[3,1] + pf[5,1] + nf[1,1] + nf[3,1] - nf[5,1] = 0
 R30: - pf[2,0] - pf[4,0] - pf[5,0] + nf[2,0] + nf[4,0] + nf[5,0] = -1
 R31: - pf[2,1] - pf[4,1] - pf[5,1] + nf[2,1] + nf[4,1] + nf[5,1] = -1
Bounds
End
